NAME : n80w60.004.718.tour
COMMENT : Length = 718
COMMENT : Found by LKH [Keld Helsgaun] Tue May  2 05:48:13 2017
TYPE : TOUR
DIMENSION : 81
TOUR_SECTION
1
32
43
33
8
59
39
11
36
23
6
74
60
31
17
78
38
80
57
35
46
27
18
16
73
30
64
63
25
14
2
76
66
50
71
55
5
26
28
70
20
75
61
77
4
79
67
62
72
45
48
15
22
42
7
53
13
21
10
34
54
44
49
12
56
40
65
37
58
41
9
51
3
29
69
52
24
47
81
19
68
-1
EOF
